10J3M/DAT/10J3MNTX-12.dat
10 3
31.3641 5.6004
16.9377 4.1155
25.6196 5.0616
19.5092 4.4169
22.4948 4.7429
18.8239 4.3387
28.5152 5.34
21.6527 4.6532
25.8109 5.0804
24.091 4.9083
12.0645