10J3M/SOL/10J3MNTX-12.sol
solution status: optimal solution found
objective value:                     69.0308590046065
x#1#3                               0.132465983859635 	(obj:0)
x#2#1                               0.929207484460433 	(obj:0)
x#2#3                              0.0707925155395669 	(obj:0)
x#4#2                               0.673862013231654 	(obj:0)
x#4#3                               0.326137986768346 	(obj:0)
x#5#1                               0.299208106780045 	(obj:0)
x#5#2                               0.700791893219955 	(obj:0)
x#7#3                                               1 	(obj:0)
x#8#1                                               1 	(obj:0)
x#9#2                                               1 	(obj:0)
x#10#1                              0.145362052659193 	(obj:0)
x#10#3                              0.854637947340807 	(obj:0)
z                                    69.0308590046065 	(obj:1)
